13 965
535 8 492 8 398 9 279 10 184 14 58 26 897 50
525 7 482 7 394 7 212 9 29 11 822 15 625 21
528 7 485 7 368 7 122 9 951 13
525 7 482 7 362 7 118 9 855 11 628 18
525 7 482 7 362 7 118 9 855 11 628 18
525 7 482 7 362 7 118 9 855 11 628 18
535 8 492 8 400 9 235 10 72 14 905 18 837 25 708 80
525 7 446 7 265 7 65 9 890 11 728 18
525 7 479 7 356 7 109 9 864 11 699 15 557 22
525 7 476 7 354 7 155 9 5 11 838 15 649 20 566 28
525 7 477 7 391 7 244 9 79 11 961 15 810 18
528 7 482 7 301 7 114 9 881 11 698 15 576 22
525 7 476 7 354 7 155 9 5 11 838 15 650 20 567 28
